n = 10;
m = 5;
h = 7;
d = 5;
p = [1, 9, 5, 5, 5, 4, 2, 8, 7, 2];
b = [2, 1, 2, 2, 2, 1, 1, 1, 1, 1];
c = [43, 33, 21, 40, 28];
i = [23, 30, 29, 36, 16, 21, 33, 14, 40, 11];
r = [[[1, 0, 0, 0, 0, 0, 0], [1, 0, 1, 1, 1, 0, 1], [1, 1, 1, 1, 0, 0, 0], [1, 0, 0, 0, 0, 0, 0], [1, 1, 0, 0, 0, 1, 1]], [[0, 1, 1, 0, 1, 0, 0], [0, 0, 1, 1, 1, 1, 1], [0, 1, 0, 0, 0, 0, 0], [1, 0, 1, 0, 1, 1, 0], [1, 1, 0, 0, 1, 0, 0]], [[0, 1, 0, 1, 1, 0, 1], [1, 0, 1, 0, 1, 0, 0], [0, 1, 1, 0, 0, 1, 0], [0, 0, 0, 0, 0, 1, 1], [1, 0, 1, 1, 0, 0, 0]], [[1, 1, 0, 0, 0, 1, 1], [0, 0, 1, 0, 0, 0, 1], [1, 0, 1, 1, 1, 0, 0], [0, 0, 1, 1, 0, 0, 0], [0, 1, 0, 1, 1, 0, 0]], [[1, 1, 1, 1, 1, 0, 1], [0, 0, 0, 0, 1, 0, 0], [0, 0, 0, 1, 0, 0, 1], [0, 1, 0, 0, 1, 1, 1], [0, 1, 0, 0, 1, 1, 1]], [[1, 1, 1, 1, 1, 0, 1], [0, 0, 0, 1, 0, 1, 0], [0, 0, 1, 0, 0, 0, 1], [1, 0, 1, 1, 0, 0, 0], [0, 1, 0, 1, 0, 1, 1]], [[1, 1, 0, 0, 0, 1, 1], [1, 0, 0, 1, 1, 1, 0], [1, 0, 0, 1, 1, 1, 1], [1, 1, 1, 1, 0, 1, 0], [1, 0, 0, 0, 0, 0, 1]], [[1, 0, 1, 1, 1, 1, 1], [1, 1, 1, 1, 0, 1, 1], [0, 1, 0, 0, 0, 0, 0], [1, 1, 0, 0, 1, 1, 1], [0, 1, 0, 1, 0, 1, 1]], [[1, 0, 1, 1, 1, 0, 0], [0, 0, 1, 0, 1, 0, 0], [1, 1, 1, 1, 1, 1, 1], [0, 0, 1, 0, 0, 1, 0], [1, 1, 1, 1, 0, 0, 0]], [[0, 1, 0, 0, 1, 1, 1], [1, 0, 1, 0, 0, 1, 1], [0, 0, 1, 1, 1, 0, 1], [0, 0, 1, 1, 1, 1, 0], [0, 0, 0, 0, 0, 1, 0]]];
